388922.0
2888
2 3 4 7 8 9 10 11 12 13 14 15 16 17 19 20 21 24 27 29 30 31 34 35 36 38 39 40 41 42 43 44 45 46 51 53 55 57 58 61 62 64 66 68 69 70 73 75 76 77 78 79 83 84 85 86 88 89 90 91 96 97 98 100 101 103 104 105 106 108 112 114 116 117 119 120 121 122 123 124 125 128 133 135 136 139 140 142 146 147 148 149 150 151 153 155 157 158 159 160 162 163 164 165 166 169 171 172 173 174 175 176 177 179 180 181 183 184 185 186 189 191 192 193 194 196 199 